Results/Experiment 2 Results/New Benchmark/output_p1_0.25_p2_0.00_n_40_06.lp
clingo version 5.4.0
Reading from tempSRTISolver.lp ...
Solving...
Answer: 1
matched(4,2) matched(2,4) matched(3,5) matched(6,7) matched(1,8) matched(9,10) matched(12,11) matched(11,12) matched(10,9) matched(16,14) matched(17,15) matched(14,16) matched(13,20) matched(27,23) matched(25,24) matched(22,26) matched(23,27) matched(21,28) matched(31,32) matched(30,29) matched(34,35) matched(37,36) matched(36,37) matched(33,40) matched(40,33) matched(5,3) matched(7,6) matched(8,1) matched(15,17) matched(18,19) matched(20,13) matched(29,30) matched(35,34) matched(39,38) matched(38,39) matched(19,18) matched(26,22) matched(28,21) matched(32,31) matched(24,25)
Optimization: 418
Answer: 2
matched(4,2) matched(2,4) matched(3,5) matched(6,7) matched(1,8) matched(9,10) matched(12,11) matched(11,12) matched(10,9) matched(16,14) matched(17,15) matched(14,16) matched(13,20) matched(27,23) matched(25,24) matched(22,26) matched(23,27) matched(21,28) matched(31,32) matched(30,29) matched(37,35) matched(34,36) matched(35,37) matched(33,40) matched(40,33) matched(5,3) matched(7,6) matched(8,1) matched(15,17) matched(18,19) matched(20,13) matched(29,30) matched(36,34) matched(39,38) matched(38,39) matched(19,18) matched(26,22) matched(28,21) matched(32,31) matched(24,25)
Optimization: 413
Answer: 3
matched(4,2) matched(2,4) matched(3,5) matched(6,7) matched(1,8) matched(9,10) matched(12,11) matched(11,12) matched(10,9) matched(16,14) matched(17,15) matched(14,16) matched(13,20) matched(27,23) matched(25,24) matched(22,26) matched(23,27) matched(21,28) matched(31,32) matched(30,29) matched(34,35) matched(33,36) matched(40,37) matched(37,40) matched(36,33) matched(5,3) matched(7,6) matched(8,1) matched(15,17) matched(18,19) matched(20,13) matched(29,30) matched(35,34) matched(39,38) matched(38,39) matched(19,18) matched(26,22) matched(28,21) matched(32,31) matched(24,25)
Optimization: 406
Answer: 4
matched(4,2) matched(2,4) matched(3,5) matched(6,7) matched(1,8) matched(9,10) matched(12,11) matched(11,12) matched(10,9) matched(16,14) matched(17,15) matched(14,16) matched(13,20) matched(22,23) matched(25,24) matched(27,26) matched(26,27) matched(21,28) matched(31,32) matched(30,29) matched(34,35) matched(33,36) matched(40,37) matched(37,40) matched(36,33) matched(5,3) matched(7,6) matched(8,1) matched(15,17) matched(18,19) matched(20,13) matched(29,30) matched(35,34) matched(39,38) matched(38,39) matched(19,18) matched(23,22) matched(28,21) matched(32,31) matched(24,25)
Optimization: 403
Answer: 5
matched(3,2) matched(6,4) matched(8,5) matched(1,7) matched(5,8) matched(11,10) matched(10,11) matched(9,12) matched(12,9) matched(15,14) matched(14,15) matched(18,16) matched(17,20) matched(25,23) matched(22,24) matched(27,26) matched(26,27) matched(21,28) matched(31,32) matched(30,29) matched(34,35) matched(33,36) matched(40,37) matched(37,40) matched(36,33) matched(2,3) matched(4,6) matched(7,1) matched(20,17) matched(13,19) matched(19,13) matched(29,30) matched(35,34) matched(39,38) matched(38,39) matched(16,18) matched(24,22) matched(28,21) matched(32,31) matched(23,25)
Optimization: 398
Answer: 6
matched(6,2) matched(5,4) matched(4,5) matched(3,7) matched(1,8) matched(9,10) matched(12,11) matched(11,12) matched(10,9) matched(16,14) matched(17,15) matched(14,16) matched(13,20) matched(25,23) matched(22,24) matched(27,26) matched(26,27) matched(21,28) matched(31,32) matched(30,29) matched(34,35) matched(33,36) matched(40,37) matched(37,40) matched(36,33) matched(7,3) matched(2,6) matched(8,1) matched(15,17) matched(18,19) matched(20,13) matched(29,30) matched(35,34) matched(39,38) matched(38,39) matched(19,18) matched(24,22) matched(28,21) matched(32,31) matched(23,25)
Optimization: 395
Answer: 7
matched(6,2) matched(5,4) matched(4,5) matched(3,7) matched(1,8) matched(11,10) matched(10,11) matched(9,12) matched(12,9) matched(16,14) matched(17,15) matched(14,16) matched(13,20) matched(25,23) matched(22,24) matched(27,26) matched(26,27) matched(21,28) matched(31,32) matched(30,29) matched(34,35) matched(33,36) matched(40,37) matched(37,40) matched(36,33) matched(7,3) matched(2,6) matched(8,1) matched(15,17) matched(18,19) matched(20,13) matched(29,30) matched(35,34) matched(39,38) matched(38,39) matched(19,18) matched(24,22) matched(28,21) matched(32,31) matched(23,25)
Optimization: 389
Answer: 8
matched(3,2) matched(5,4) matched(4,5) matched(6,7) matched(1,8) matched(11,10) matched(10,11) matched(9,12) matched(12,9) matched(16,14) matched(17,15) matched(14,16) matched(13,20) matched(25,23) matched(22,24) matched(27,26) matched(26,27) matched(21,28) matched(31,32) matched(30,29) matched(34,35) matched(33,36) matched(40,37) matched(37,40) matched(36,33) matched(2,3) matched(7,6) matched(8,1) matched(15,17) matched(18,19) matched(20,13) matched(29,30) matched(35,34) matched(39,38) matched(38,39) matched(19,18) matched(24,22) matched(28,21) matched(32,31) matched(23,25)
Optimization: 387
Answer: 9
matched(6,2) matched(1,4) matched(8,5) matched(3,7) matched(5,8) matched(11,10) matched(10,11) matched(9,12) matched(12,9) matched(16,14) matched(17,15) matched(14,16) matched(13,20) matched(25,23) matched(22,24) matched(27,26) matched(26,27) matched(21,28) matched(31,32) matched(30,29) matched(34,35) matched(33,36) matched(40,37) matched(37,40) matched(36,33) matched(7,3) matched(2,6) matched(4,1) matched(15,17) matched(18,19) matched(20,13) matched(29,30) matched(35,34) matched(39,38) matched(38,39) matched(19,18) matched(24,22) matched(28,21) matched(32,31) matched(23,25)
Optimization: 386
Answer: 10
matched(3,2) matched(6,4) matched(8,5) matched(1,7) matched(5,8) matched(11,10) matched(10,11) matched(9,12) matched(12,9) matched(16,14) matched(17,15) matched(14,16) matched(13,20) matched(25,23) matched(22,24) matched(27,26) matched(26,27) matched(21,28) matched(31,32) matched(30,29) matched(34,35) matched(33,36) matched(40,37) matched(37,40) matched(36,33) matched(2,3) matched(4,6) matched(7,1) matched(15,17) matched(18,19) matched(20,13) matched(29,30) matched(35,34) matched(39,38) matched(38,39) matched(19,18) matched(24,22) matched(28,21) matched(32,31) matched(23,25)
Optimization: 385
Answer: 11
matched(4,2) matched(2,4) matched(3,5) matched(6,7) matched(1,8) matched(11,10) matched(10,11) matched(9,12) matched(12,9) matched(16,14) matched(17,15) matched(14,16) matched(13,20) matched(25,23) matched(22,24) matched(27,26) matched(26,27) matched(21,28) matched(31,32) matched(30,29) matched(34,35) matched(33,36) matched(40,37) matched(37,40) matched(36,33) matched(5,3) matched(7,6) matched(8,1) matched(15,17) matched(18,19) matched(20,13) matched(29,30) matched(35,34) matched(39,38) matched(38,39) matched(19,18) matched(24,22) matched(28,21) matched(32,31) matched(23,25)
Optimization: 384
OPTIMUM FOUND

Models       : 11
  Optimum    : yes
Optimization : 384
Calls        : 1
Time         : 0.410s (Solving: 0.07s 1st Model: 0.00s Unsat: 0.02s)
CPU Time     : 0.404s
